(set-logic HORN)

(declare-datatypes ((node 0)) (((node  (next Int) (prev Int) (data Int)))))
(declare-datatypes ((HeapObject 0)) (((O_Int  (getInt Int)) (O_UInt  (getUInt Int)) (O_Addr  (getAddr Int)) (O_node  (getnode node)) (defObj ))))
(declare-datatypes ((Heap 0)) (((HeapCtor  (HeapSize Int) (HeapContents (Array Int HeapObject))))))

(declare-fun |inv_main35| ( Heap Int Int Int Int Int Int Int Int ) Bool)
(declare-fun |inv_main4| ( Heap Int Int ) Bool)
(declare-fun |inv_main65| ( Heap Int Int Int Int Int Int ) Bool)
(declare-fun |inv_main77| ( Heap Int Int Int Int Int ) Bool)
(declare-fun |inv_main69| ( Heap Int Int Int Int Int Int Int ) Bool)
(declare-fun |inv_main12| ( Heap Int Int Int Int Int Int ) Bool)
(declare-fun |inv_main55| ( Heap Int Int Int Int Int Int Int ) Bool)
(declare-fun |inv_main71| ( Heap Int Int Int Int Int Int Int ) Bool)
(declare-fun |inv_main74| ( Heap Int Int Int Int Int ) Bool)
(declare-fun |inv_main38| ( Heap Int Int Int Int Int Int Int ) Bool)
(declare-fun |inv_main44| ( Heap Int Int Int Int Int Int ) Bool)
(declare-fun |CHC_COMP_FALSE| ( ) Bool)
(declare-fun |inv_main96| ( Heap Int Int Int Int Int ) Bool)
(declare-fun |inv_main93| ( Heap Int Int Int Int Int Int Int ) Bool)
(declare-fun |inv_main67| ( Heap Int Int Int Int Int Int ) Bool)
(declare-fun |inv_main72| ( Heap Int Int Int Int Int Int Int ) Bool)
(declare-fun |inv_main36| ( Heap Int Int Int Int Int Int Int Int ) Bool)
(declare-fun |inv_main19| ( Heap Int Int Int Int Int Int ) Bool)
(declare-fun |inv_main66| ( Heap Int Int Int Int Int Int ) Bool)
(declare-fun |inv_main70| ( Heap Int Int Int Int Int Int Int ) Bool)
(declare-fun |inv_main18| ( Heap Int Int Int Int Int Int ) Bool)
(declare-fun |inv_main23| ( Heap Int Int Int Int Int Int ) Bool)
(declare-fun |inv_main62| ( Heap Int Int Int Int Int Int Int ) Bool)
(declare-fun |inv_main22| ( Heap Int Int Int Int Int Int ) Bool)
(declare-fun |inv_main29| ( Heap Int Int Int Int Int Int Int Int ) Bool)
(declare-fun |inv_main61| ( Heap Int Int Int Int Int Int Int ) Bool)
(declare-fun |inv_main41| ( Heap Int Int Int Int Int Int Int ) Bool)
(declare-fun |inv_main89| ( Heap Int Int Int Int Int Int ) Bool)

(assert
  (forall ( (A Heap) (v_1 Int) (v_2 Int) ) 
    (=>
      (and
        (and (= A (HeapCtor 0 ((as const (Array Int HeapObject)) defObj)))
     (= 2 v_1)
     (= 1 v_2))
      )
      (inv_main4 A v_1 v_2)
    )
  )
)
(assert
  (forall ( (A Int) (B Int) (C Int) (D Int) (E Int) (F Int) (G Heap) (H Int) (I Int) (J Int) (K Int) (L Int) (M Int) (N Int) (O Int) (P Heap) ) 
    (=>
      (and
        (inv_main62 P O N M L K J I)
        (let ((a!1 (ite (and (not (<= I 0)) (>= (HeapSize P) I))
                (select (HeapContents P) I)
                defObj)))
(let ((a!2 (O_node (node (next (getnode a!1)) (prev (getnode a!1)) J))))
(let ((a!3 (ite (and (not (<= I 0)) (>= (HeapSize P) I))
                (HeapCtor (HeapSize P) (store (HeapContents P) I a!2))
                P)))
  (and (= H M)
       (= F O)
       (= E N)
       (= D L)
       (= C K)
       (= B J)
       (= A I)
       (= G a!3)
       ((_ is O_node) a!1)
       (= 0 H)))))
      )
      (inv_main65 G F E H D C A)
    )
  )
)
(assert
  (forall ( (A Int) (B Int) (C Int) (D Int) (E Int) (F Int) (G Int) (H node) (I Heap) (J Int) (K Int) (L Int) (M Int) (N Int) (O Int) (P Int) (Q Heap) ) 
    (=>
      (and
        (inv_main22 Q P O N M L K)
        (let ((a!1 (HeapCtor (+ 1 (HeapSize Q))
                     (store (HeapContents Q) (+ 1 (HeapSize Q)) (O_node H)))))
  (and (= A M)
       (= J (+ 1 (HeapSize Q)))
       (= G P)
       (= F O)
       (= E N)
       (= D M)
       (= C L)
       (= B K)
       (= I a!1)
       (<= 2 N)
       (not (= 0 J))))
      )
      (inv_main29 I G F E D C B A J)
    )
  )
)
(assert
  (forall ( (A Int) (B Int) (C Int) (D Int) (E Int) (F Int) (G Heap) ) 
    (=>
      (and
        (inv_main22 G F E D C B A)
        (not (<= 2 D))
      )
      (inv_main23 G F E D C B A)
    )
  )
)
(assert
  (forall ( (A Heap) (B Int) (C Int) (D Int) (E Int) (F Int) (G Int) (H Int) (I Int) (J Heap) ) 
    (=>
      (and
        (inv_main29 J I H G F E D C B)
        (let ((a!1 (ite (and (not (<= B 0)) (>= (HeapSize J) B))
                (select (HeapContents J) B)
                defObj)))
(let ((a!2 (O_node (node 0 (prev (getnode a!1)) (data (getnode a!1))))))
(let ((a!3 (ite (and (not (<= B 0)) (>= (HeapSize J) B))
                (HeapCtor (HeapSize J) (store (HeapContents J) B a!2))
                J)))
  (and ((_ is O_node) a!1) (= A a!3)))))
      )
      (inv_main35 A I H G F E D C B)
    )
  )
)
(assert
  (forall ( (A Heap) (B Int) (C Int) (D Int) (E Int) (F Int) (G Int) (H Int) (I Heap) ) 
    (=>
      (and
        (inv_main61 I H G F E D C B)
        (let ((a!1 (ite (and (not (<= B 0)) (>= (HeapSize I) B))
                (select (HeapContents I) B)
                defObj)))
(let ((a!2 (O_node (node (next (getnode a!1)) 0 (data (getnode a!1))))))
(let ((a!3 (ite (and (not (<= B 0)) (>= (HeapSize I) B))
                (HeapCtor (HeapSize I) (store (HeapContents I) B a!2))
                I)))
  (and ((_ is O_node) a!1) (= A a!3)))))
      )
      (inv_main62 A H G F E D C B)
    )
  )
)
(assert
  (forall ( (A Int) (B Int) (C Int) (D Int) (E Int) (F Int) (G Int) (H Heap) ) 
    (=>
      (and
        (inv_main66 H G F E D C B)
        (let ((a!1 (ite (and (not (<= E 0)) (>= (HeapSize H) E))
                (select (HeapContents H) E)
                defObj)))
  (and ((_ is O_node) a!1) (= A (prev (getnode a!1)))))
      )
      (inv_main69 H G F E D C B A)
    )
  )
)
(assert
  (forall ( (A Heap) (B Int) (C Int) (D Int) (E Int) (F Int) (G Int) (H Int) (I Int) (J Heap) ) 
    (=>
      (and
        (inv_main35 J I H G F E D C B)
        (let ((a!1 (ite (and (not (<= B 0)) (>= (HeapSize J) B))
                (select (HeapContents J) B)
                defObj)))
(let ((a!2 (O_node (node (next (getnode a!1)) 0 (data (getnode a!1))))))
(let ((a!3 (ite (and (not (<= B 0)) (>= (HeapSize J) B))
                (HeapCtor (HeapSize J) (store (HeapContents J) B a!2))
                J)))
  (and ((_ is O_node) a!1) (= A a!3)))))
      )
      (inv_main36 A I H G F E D C B)
    )
  )
)
(assert
  (forall ( (A Int) (B Int) (C Int) (D Int) (E Int) (F Heap) ) 
    (=>
      (and
        (inv_main74 F E D C B A)
        (let ((a!1 (ite (and (not (<= B 0)) (>= (HeapSize F) B))
                (select (HeapContents F) B)
                defObj)))
  (and ((_ is O_node) a!1) (= D (data (getnode a!1)))))
      )
      (inv_main77 F E D C B A)
    )
  )
)
(assert
  (forall ( (A Heap) (B Int) (C Int) (D Int) (E Int) (F Int) (G Int) (H Heap) ) 
    (=>
      (and
        (inv_main18 H G F E D C B)
        (let ((a!1 (ite (and (not (<= B 0)) (>= (HeapSize H) B))
                (select (HeapContents H) B)
                defObj)))
(let ((a!2 (O_node (node (next (getnode a!1)) 0 (data (getnode a!1))))))
(let ((a!3 (ite (and (not (<= B 0)) (>= (HeapSize H) B))
                (HeapCtor (HeapSize H) (store (HeapContents H) B a!2))
                H)))
  (and ((_ is O_node) a!1) (= A a!3)))))
      )
      (inv_main19 A G F E D C B)
    )
  )
)
(assert
  (forall ( (A Int) (B Int) (C Int) (D Int) (E Int) (F Heap) ) 
    (=>
      (and
        (inv_main74 F E D C B A)
        (let ((a!1 (ite (and (not (<= B 0)) (>= (HeapSize F) B))
                (select (HeapContents F) B)
                defObj)))
(let ((a!2 (not (= D (data (getnode a!1))))))
  (and ((_ is O_node) a!1) a!2)))
      )
      (inv_main96 F E D C B A)
    )
  )
)
(assert
  (forall ( (A Int) (B Int) (C Int) (D Heap) (E Int) (F Int) (G Int) (H Int) (I Int) (J Int) (K Int) (L Int) (M Int) (N Heap) ) 
    (=>
      (and
        (inv_main77 N M L K J I)
        (let ((a!1 (ite (and (not (<= J 0)) (>= (HeapSize N) J))
                (select (HeapContents N) J)
                defObj)))
  (and (= H I)
       (not (= H G))
       (= G M)
       (= F (next (getnode a!1)))
       (= F E)
       (= C L)
       (= B J)
       (= A (+ 1 H))
       (= D N)
       ((_ is O_node) a!1)
       (= E K)))
      )
      (inv_main96 D G C E F A)
    )
  )
)
(assert
  (forall ( (A Heap) (B Int) (C Int) (D Int) (E Int) (F Int) (G Int) (H Int) (I Heap) ) 
    (=>
      (and
        (inv_main71 I H G F E D C B)
        (let ((a!1 (ite (and (not (<= C 0)) (>= (HeapSize I) C))
                (select (HeapContents I) C)
                defObj)))
(let ((a!2 (O_node (node F (prev (getnode a!1)) (data (getnode a!1))))))
(let ((a!3 (ite (and (not (<= C 0)) (>= (HeapSize I) C))
                (HeapCtor (HeapSize I) (store (HeapContents I) C a!2))
                I)))
  (and ((_ is O_node) a!1) (= A a!3)))))
      )
      (inv_main72 A H G F E D C B)
    )
  )
)
(assert
  (forall ( (A Int) (B Int) (C Int) (D Int) (E Int) (F Heap) (G Int) (H Int) (I Int) (J Int) (K Int) (L Int) (M Int) (N Int) (O Heap) ) 
    (=>
      (and
        (inv_main89 O N M L K J I)
        (let ((a!1 (ite (and (not (<= I 0)) (>= (HeapSize O) I))
                (select (HeapContents O) I)
                defObj)))
  (and (not (= H G))
       (= G I)
       (= E N)
       (= D M)
       (= C L)
       (= B K)
       (= A J)
       (= F O)
       ((_ is O_node) a!1)
       (= H (next (getnode a!1)))))
      )
      (inv_main93 F E D C B A G H)
    )
  )
)
(assert
  (forall ( (A Int) (B Int) (C Int) (D Int) (E Int) (F Int) (G Heap) (H Int) (I Int) (J Int) (K Int) (L Int) (M Int) (N Int) (O Int) (P Heap) (Q Int) (R Int) (S Int) (T Int) (U Int) (V Int) (W Int) (X Int) (Y Int) (Z Heap) ) 
    (=>
      (and
        (inv_main93 Z Y X W V U T S)
        (let ((a!1 (ite (and (not (<= S 0)) (>= (HeapSize Z) S))
                (select (HeapContents Z) S)
                defObj))
      (a!2 (ite (and (not (<= I 0)) (>= (HeapSize P) I))
                (HeapCtor (HeapSize P) (store (HeapContents P) I defObj))
                P)))
  (and (= H (next (getnode a!1)))
       (= F O)
       (= E N)
       (= D M)
       (= C L)
       (= B K)
       (= A I)
       (= Q J)
       (= J T)
       (= R H)
       (not (= R Q))
       (= O Y)
       (= N X)
       (= M W)
       (= L V)
       (= K U)
       (= G a!2)
       (= P Z)
       ((_ is O_node) a!1)
       (= I S)))
      )
      (inv_main93 G F E D C B Q R)
    )
  )
)
(assert
  (forall ( (A Heap) (B Int) (C Int) (D Int) (E Int) (F Int) (G Int) (H Heap) ) 
    (=>
      (and
        (inv_main12 H G F E D C B)
        (let ((a!1 (ite (and (not (<= B 0)) (>= (HeapSize H) B))
                (select (HeapContents H) B)
                defObj)))
(let ((a!2 (O_node (node 0 (prev (getnode a!1)) (data (getnode a!1))))))
(let ((a!3 (ite (and (not (<= B 0)) (>= (HeapSize H) B))
                (HeapCtor (HeapSize H) (store (HeapContents H) B a!2))
                H)))
  (and ((_ is O_node) a!1) (= A a!3)))))
      )
      (inv_main18 A G F E D C B)
    )
  )
)
(assert
  (forall ( (A Int) (B Int) (C Int) (D Int) (E Int) (F node) (G Heap) (H Int) (I Int) (J Int) (K Heap) ) 
    (=>
      (and
        (inv_main4 K J I)
        (let ((a!1 (HeapCtor (+ 1 (HeapSize K))
                     (store (HeapContents K) (+ 1 (HeapSize K)) (O_node F)))))
  (and (= B I)
       (= H (+ 1 (HeapSize K)))
       (= E J)
       (= D I)
       (= C J)
       (= A I)
       (= G a!1)
       (not (= 0 H))))
      )
      (inv_main12 G E D C B A H)
    )
  )
)
(assert
  (forall ( (A Int) (B Int) (C Int) (D Heap) (E Int) (F Int) (G Int) (H Int) (I Int) (J Int) (K Int) (L Int) (M Int) (N Heap) (v_14 Int) ) 
    (=>
      (and
        (inv_main77 N M L K J I)
        (let ((a!1 (ite (and (not (<= J 0)) (>= (HeapSize N) J))
                (select (HeapContents N) J)
                defObj)))
  (and (= E (next (getnode a!1)))
       (= E H)
       (= H K)
       (= G I)
       (= G F)
       (= F M)
       (= C L)
       (= B J)
       (= A (+ 1 G))
       (= D N)
       ((_ is O_node) a!1)
       (not (= 0 H))
       (= v_14 H)))
      )
      (inv_main89 D F C H E A v_14)
    )
  )
)
(assert
  (forall ( (A Int) (B Int) (C Int) (D Int) (E Int) (F Int) (G Int) (H Int) (I Heap) (J Int) (K Int) (L Int) (M Int) (N Int) (O Int) (P Int) (Q Heap) ) 
    (=>
      (and
        (inv_main41 Q P O N M L K J)
        (let ((a!1 (ite (and (not (<= L 0)) (>= (HeapSize Q) L))
                (select (HeapContents Q) L)
                defObj)))
(let ((a!2 (O_node (node (next (getnode a!1)) J (data (getnode a!1))))))
(let ((a!3 (ite (and (not (<= L 0)) (>= (HeapSize Q) L))
                (HeapCtor (HeapSize Q) (store (HeapContents Q) L a!2))
                Q)))
  (and (= A (+ (- 1) F))
       (= G O)
       (= F N)
       (= E M)
       (= D L)
       (= C K)
       (= B J)
       (= I a!3)
       ((_ is O_node) a!1)
       (= H P)))))
      )
      (inv_main22 I H G A E B C)
    )
  )
)
(assert
  (forall ( (A Int) (B Int) (C Int) (D Int) (E Int) (F Int) (G Int) (H Heap) (I Int) (J Int) (K Int) (L Int) (M Int) (N Int) (O Int) (P Int) (Q Heap) ) 
    (=>
      (and
        (inv_main38 Q P O N M L K J)
        (let ((a!1 (ite (and (not (<= J 0)) (>= (HeapSize Q) J))
                (select (HeapContents Q) J)
                defObj)))
(let ((a!2 (O_node (node L (prev (getnode a!1)) (data (getnode a!1))))))
(let ((a!3 (ite (and (not (<= J 0)) (>= (HeapSize Q) J))
                (HeapCtor (HeapSize Q) (store (HeapContents Q) J a!2))
                Q)))
  (and (= I 0)
       (= I L)
       (= G P)
       (= F O)
       (= E N)
       (= D M)
       (= C K)
       (= B J)
       (= H a!3)
       ((_ is O_node) a!1)
       (= A (+ (- 1) E))))))
      )
      (inv_main22 H G F A D B C)
    )
  )
)
(assert
  (forall ( (A Int) (B Int) (C Int) (D Int) (E Int) (F Int) (G Heap) (H Int) (I Int) (J Int) (K Int) (L Int) (M Int) (N Heap) (v_14 Int) ) 
    (=>
      (and
        (inv_main19 N M L K J I H)
        (let ((a!1 (ite (and (not (<= H 0)) (>= (HeapSize N) H))
                (select (HeapContents N) H)
                defObj)))
(let ((a!2 (O_node (node (next (getnode a!1)) (prev (getnode a!1)) I))))
(let ((a!3 (ite (and (not (<= H 0)) (>= (HeapSize N) H))
                (HeapCtor (HeapSize N) (store (HeapContents N) H a!2))
                N)))
  (and (= F M)
       (= D K)
       (= C J)
       (= B I)
       (= A H)
       (= G a!3)
       ((_ is O_node) a!1)
       (= E L)
       (= v_14 A)))))
      )
      (inv_main22 G F E D C A v_14)
    )
  )
)
(assert
  (forall ( (A Heap) (B Int) (C Int) (D Int) (E Int) (F Int) (G Int) (H Heap) ) 
    (=>
      (and
        (inv_main65 H G F E D C B)
        (let ((a!1 (ite (and (not (<= B 0)) (>= (HeapSize H) B))
                (select (HeapContents H) B)
                defObj)))
(let ((a!2 (O_node (node (next (getnode a!1)) B (data (getnode a!1))))))
(let ((a!3 (ite (and (not (<= B 0)) (>= (HeapSize H) B))
                (HeapCtor (HeapSize H) (store (HeapContents H) B a!2))
                H)))
  (and ((_ is O_node) a!1) (= A a!3)))))
      )
      (inv_main67 A G F E D C B)
    )
  )
)
(assert
  (forall ( (A Int) (B Int) (C Int) (D Int) (E Int) (F Int) (G Int) (H Int) (I Int) (J Int) (K Int) (L Int) (M node) (N Heap) (O Heap) (P Int) (Q Int) (R Int) (S Int) (T Int) (U Int) (V Int) (W Heap) ) 
    (=>
      (and
        (inv_main44 W V U T S R Q)
        (let ((a!1 (HeapCtor (+ 1 (HeapSize N))
                     (store (HeapContents N) (+ 1 (HeapSize N)) (O_node M))))
      (a!2 (ite (and (not (<= R 0)) (>= (HeapSize W) R))
                (select (HeapContents W) R)
                defObj)))
(let ((a!3 (O_node (node (next (getnode a!2)) Q (data (getnode a!2))))))
(let ((a!4 (ite (and (not (<= R 0)) (>= (HeapSize W) R))
                (HeapCtor (HeapSize W) (store (HeapContents W) R a!3))
                W)))
  (and (= D I)
       (= F 3)
       (= E I)
       (= C T)
       (= B S)
       (= A Q)
       (= G R)
       (= P (+ 1 (HeapSize N)))
       (= L K)
       (= K V)
       (= J I)
       (= I U)
       (= H G)
       (= O a!1)
       (= N a!4)
       ((_ is O_node) a!2)
       (not (= 0 P))))))
      )
      (inv_main55 O L J H F E D P)
    )
  )
)
(assert
  (forall ( (A Heap) (B Int) (C Int) (D Int) (E Int) (F Int) (G Int) (H Int) (I Heap) ) 
    (=>
      (and
        (inv_main55 I H G F E D C B)
        (let ((a!1 (ite (and (not (<= B 0)) (>= (HeapSize I) B))
                (select (HeapContents I) B)
                defObj)))
(let ((a!2 (O_node (node 0 (prev (getnode a!1)) (data (getnode a!1))))))
(let ((a!3 (ite (and (not (<= B 0)) (>= (HeapSize I) B))
                (HeapCtor (HeapSize I) (store (HeapContents I) B a!2))
                I)))
  (and ((_ is O_node) a!1) (= A a!3)))))
      )
      (inv_main61 A H G F E D C B)
    )
  )
)
(assert
  (forall ( (A Heap) (B Int) (C Int) (D Int) (E Int) (F Int) (G Int) (H Int) (I Heap) ) 
    (=>
      (and
        (inv_main69 I H G F E D C B)
        (let ((a!1 (ite (and (not (<= B 0)) (>= (HeapSize I) B))
                (select (HeapContents I) B)
                defObj)))
(let ((a!2 (O_node (node C (prev (getnode a!1)) (data (getnode a!1))))))
(let ((a!3 (ite (and (not (<= B 0)) (>= (HeapSize I) B))
                (HeapCtor (HeapSize I) (store (HeapContents I) B a!2))
                I)))
  (and ((_ is O_node) a!1) (= A a!3)))))
      )
      (inv_main70 A H G F E D C B)
    )
  )
)
(assert
  (forall ( (A Heap) (B Int) (C Int) (D Int) (E Int) (F Int) (G Int) (H Heap) ) 
    (=>
      (and
        (inv_main23 H G F E D C B)
        (let ((a!1 (ite (and (not (<= B 0)) (>= (HeapSize H) B))
                (select (HeapContents H) B)
                defObj)))
(let ((a!2 (O_node (node C (prev (getnode a!1)) (data (getnode a!1))))))
(let ((a!3 (ite (and (not (<= B 0)) (>= (HeapSize H) B))
                (HeapCtor (HeapSize H) (store (HeapContents H) B a!2))
                H)))
  (and ((_ is O_node) a!1) (= A a!3)))))
      )
      (inv_main44 A G F E D C B)
    )
  )
)
(assert
  (forall ( (A Int) (B Int) (C Int) (D Int) (E Int) (F Int) (G Int) (H Int) (I Heap) (J Int) (K Int) (L Int) (M Int) (N Int) (O Int) (P Int) (Q Int) (R Heap) ) 
    (=>
      (and
        (inv_main36 R Q P O N M L K J)
        (let ((a!1 (ite (and (not (<= J 0)) (>= (HeapSize R) J))
                (select (HeapContents R) J)
                defObj)))
(let ((a!2 (O_node (node (next (getnode a!1)) (prev (getnode a!1)) K))))
(let ((a!3 (ite (and (not (<= J 0)) (>= (HeapSize R) J))
                (HeapCtor (HeapSize R) (store (HeapContents R) J a!2))
                R)))
  (and (= B K)
       (= H Q)
       (= G P)
       (= F O)
       (= E N)
       (= D M)
       (= C L)
       (= I a!3)
       ((_ is O_node) a!1)
       (= A J)))))
      )
      (inv_main38 I H G F E D C A)
    )
  )
)
(assert
  (forall ( (A Heap) (B Int) (C Int) (D Int) (E Int) (F Int) (G Int) (H Int) (I Heap) ) 
    (=>
      (and
        (inv_main70 I H G F E D C B)
        (let ((a!1 (ite (and (not (<= C 0)) (>= (HeapSize I) C))
                (select (HeapContents I) C)
                defObj)))
(let ((a!2 (O_node (node (next (getnode a!1)) B (data (getnode a!1))))))
(let ((a!3 (ite (and (not (<= C 0)) (>= (HeapSize I) C))
                (HeapCtor (HeapSize I) (store (HeapContents I) C a!2))
                I)))
  (and ((_ is O_node) a!1) (= A a!3)))))
      )
      (inv_main71 A H G F E D C B)
    )
  )
)
(assert
  (forall ( (A Int) (B Int) (C Int) (D Int) (E Int) (F Heap) (G Int) (H Int) (I Int) (J Int) (K Int) (L Int) (M Int) (N Heap) ) 
    (=>
      (and
        (inv_main77 N M L K J I)
        (let ((a!1 (ite (and (not (<= J 0)) (>= (HeapSize N) J))
                (select (HeapContents N) J)
                defObj)))
  (and (= H (next (getnode a!1)))
       (not (= H G))
       (= G K)
       (= D L)
       (= C J)
       (= B I)
       (= A (+ 1 B))
       (= F N)
       ((_ is O_node) a!1)
       (= E M)))
      )
      (inv_main74 F E D G H A)
    )
  )
)
(assert
  (forall ( (A Int) (B Int) (C Int) (D Int) (E Int) (F Heap) (G Int) (H Int) (I Int) (J Int) (K Int) (L Int) (M Int) (N Heap) (v_14 Int) (v_15 Int) ) 
    (=>
      (and
        (inv_main72 N M L K J I H G)
        (let ((a!1 (ite (and (not (<= K 0)) (>= (HeapSize N) K))
                (select (HeapContents N) K)
                defObj)))
(let ((a!2 (O_node (node (next (getnode a!1)) H (data (getnode a!1))))))
(let ((a!3 (ite (and (not (<= K 0)) (>= (HeapSize N) K))
                (HeapCtor (HeapSize N) (store (HeapContents N) K a!2))
                N)))
  (and (= D L)
       (= C K)
       (= B J)
       (= A I)
       (= F a!3)
       ((_ is O_node) a!1)
       (= E M)
       (= v_14 C)
       (= 0 v_15)))))
      )
      (inv_main74 F E D C v_14 v_15)
    )
  )
)
(assert
  (forall ( (A Int) (B Int) (C Int) (D Int) (E Int) (F Int) (G Heap) (H Int) (I Int) (J Int) (K Int) (L Int) (M Int) (N Heap) (v_14 Int) (v_15 Int) ) 
    (=>
      (and
        (inv_main67 N M L K J I H)
        (let ((a!1 (ite (and (not (<= H 0)) (>= (HeapSize N) H))
                (select (HeapContents N) H)
                defObj)))
(let ((a!2 (O_node (node H (prev (getnode a!1)) (data (getnode a!1))))))
(let ((a!3 (ite (and (not (<= H 0)) (>= (HeapSize N) H))
                (HeapCtor (HeapSize N) (store (HeapContents N) H a!2))
                N)))
  (and (= F M)
       (= D K)
       (= C J)
       (= B I)
       (= A H)
       (= G a!3)
       ((_ is O_node) a!1)
       (= E L)
       (= v_14 A)
       (= 0 v_15)))))
      )
      (inv_main74 G F E A v_14 v_15)
    )
  )
)
(assert
  (forall ( (A Int) (B Int) (C Int) (D Int) (E Int) (F Int) (G Heap) (H Int) (I Int) (J Int) (K Int) (L Int) (M Int) (N Int) (O Int) (P Heap) ) 
    (=>
      (and
        (inv_main62 P O N M L K J I)
        (let ((a!1 (ite (and (not (<= I 0)) (>= (HeapSize P) I))
                (select (HeapContents P) I)
                defObj)))
(let ((a!2 (O_node (node (next (getnode a!1)) (prev (getnode a!1)) J))))
(let ((a!3 (ite (and (not (<= I 0)) (>= (HeapSize P) I))
                (HeapCtor (HeapSize P) (store (HeapContents P) I a!2))
                P)))
  (and (= H M)
       (= F O)
       (= E N)
       (= D L)
       (= C K)
       (= B J)
       (= A I)
       (= G a!3)
       ((_ is O_node) a!1)
       (not (= 0 H))))))
      )
      (inv_main66 G F E H D C A)
    )
  )
)
(assert
  (forall ( (A Int) (B Int) (C Int) (D Int) (E Int) (F Int) (G Heap) (H Int) (I Int) (J Int) (K Int) (L Int) (M Int) (N Int) (O Int) (P Heap) ) 
    (=>
      (and
        (inv_main38 P O N M L K J I)
        (let ((a!1 (ite (and (not (<= I 0)) (>= (HeapSize P) I))
                (select (HeapContents P) I)
                defObj)))
(let ((a!2 (O_node (node K (prev (getnode a!1)) (data (getnode a!1))))))
(let ((a!3 (ite (and (not (<= I 0)) (>= (HeapSize P) I))
                (HeapCtor (HeapSize P) (store (HeapContents P) I a!2))
                P)))
  (and (= H K)
       (= F O)
       (= E N)
       (= D M)
       (= C L)
       (= B J)
       (= A I)
       (= G a!3)
       ((_ is O_node) a!1)
       (not (= H 0))))))
      )
      (inv_main41 G F E D C H B A)
    )
  )
)
(assert
  (forall ( (A Int) (B Int) (C Int) (D Int) (E Int) (F Int) (G Heap) ) 
    (=>
      (and
        (inv_main12 G F E D C B A)
        (let ((a!1 (ite (and (not (<= A 0)) (>= (HeapSize G) A))
                (select (HeapContents G) A)
                defObj)))
  (not ((_ is O_node) a!1)))
      )
      CHC_COMP_FALSE
    )
  )
)
(assert
  (forall ( (A Int) (B Int) (C Int) (D Int) (E Int) (F Int) (G Heap) ) 
    (=>
      (and
        (inv_main18 G F E D C B A)
        (let ((a!1 (ite (and (not (<= A 0)) (>= (HeapSize G) A))
                (select (HeapContents G) A)
                defObj)))
  (not ((_ is O_node) a!1)))
      )
      CHC_COMP_FALSE
    )
  )
)
(assert
  (forall ( (A Int) (B Int) (C Int) (D Int) (E Int) (F Int) (G Heap) ) 
    (=>
      (and
        (inv_main19 G F E D C B A)
        (let ((a!1 (ite (and (not (<= A 0)) (>= (HeapSize G) A))
                (select (HeapContents G) A)
                defObj)))
  (not ((_ is O_node) a!1)))
      )
      CHC_COMP_FALSE
    )
  )
)
(assert
  (forall ( (A Int) (B Int) (C Int) (D Int) (E Int) (F Int) (G Int) (H Int) (I Heap) ) 
    (=>
      (and
        (inv_main29 I H G F E D C B A)
        (let ((a!1 (ite (and (not (<= A 0)) (>= (HeapSize I) A))
                (select (HeapContents I) A)
                defObj)))
  (not ((_ is O_node) a!1)))
      )
      CHC_COMP_FALSE
    )
  )
)
(assert
  (forall ( (A Int) (B Int) (C Int) (D Int) (E Int) (F Int) (G Int) (H Int) (I Heap) ) 
    (=>
      (and
        (inv_main35 I H G F E D C B A)
        (let ((a!1 (ite (and (not (<= A 0)) (>= (HeapSize I) A))
                (select (HeapContents I) A)
                defObj)))
  (not ((_ is O_node) a!1)))
      )
      CHC_COMP_FALSE
    )
  )
)
(assert
  (forall ( (A Int) (B Int) (C Int) (D Int) (E Int) (F Int) (G Int) (H Int) (I Heap) ) 
    (=>
      (and
        (inv_main36 I H G F E D C B A)
        (let ((a!1 (ite (and (not (<= A 0)) (>= (HeapSize I) A))
                (select (HeapContents I) A)
                defObj)))
  (not ((_ is O_node) a!1)))
      )
      CHC_COMP_FALSE
    )
  )
)
(assert
  (forall ( (A Int) (B Int) (C Int) (D Int) (E Int) (F Int) (G Int) (H Heap) ) 
    (=>
      (and
        (inv_main38 H G F E D C B A)
        (let ((a!1 (ite (and (not (<= A 0)) (>= (HeapSize H) A))
                (select (HeapContents H) A)
                defObj)))
  (not ((_ is O_node) a!1)))
      )
      CHC_COMP_FALSE
    )
  )
)
(assert
  (forall ( (A Int) (B Int) (C Int) (D Int) (E Int) (F Int) (G Int) (H Heap) ) 
    (=>
      (and
        (inv_main41 H G F E D C B A)
        (let ((a!1 (ite (and (not (<= C 0)) (>= (HeapSize H) C))
                (select (HeapContents H) C)
                defObj)))
  (not ((_ is O_node) a!1)))
      )
      CHC_COMP_FALSE
    )
  )
)
(assert
  (forall ( (A Int) (B Int) (C Int) (D Int) (E Int) (F Int) (G Heap) ) 
    (=>
      (and
        (inv_main23 G F E D C B A)
        (let ((a!1 (ite (and (not (<= A 0)) (>= (HeapSize G) A))
                (select (HeapContents G) A)
                defObj)))
  (not ((_ is O_node) a!1)))
      )
      CHC_COMP_FALSE
    )
  )
)
(assert
  (forall ( (A Int) (B Int) (C Int) (D Int) (E Int) (F Int) (G Heap) ) 
    (=>
      (and
        (inv_main44 G F E D C B A)
        (let ((a!1 (ite (and (not (<= B 0)) (>= (HeapSize G) B))
                (select (HeapContents G) B)
                defObj)))
  (not ((_ is O_node) a!1)))
      )
      CHC_COMP_FALSE
    )
  )
)
(assert
  (forall ( (A Int) (B Int) (C Int) (D Int) (E Int) (F Int) (G Int) (H Heap) ) 
    (=>
      (and
        (inv_main55 H G F E D C B A)
        (let ((a!1 (ite (and (not (<= A 0)) (>= (HeapSize H) A))
                (select (HeapContents H) A)
                defObj)))
  (not ((_ is O_node) a!1)))
      )
      CHC_COMP_FALSE
    )
  )
)
(assert
  (forall ( (A Int) (B Int) (C Int) (D Int) (E Int) (F Int) (G Int) (H Heap) ) 
    (=>
      (and
        (inv_main61 H G F E D C B A)
        (let ((a!1 (ite (and (not (<= A 0)) (>= (HeapSize H) A))
                (select (HeapContents H) A)
                defObj)))
  (not ((_ is O_node) a!1)))
      )
      CHC_COMP_FALSE
    )
  )
)
(assert
  (forall ( (A Int) (B Int) (C Int) (D Int) (E Int) (F Int) (G Int) (H Heap) ) 
    (=>
      (and
        (inv_main62 H G F E D C B A)
        (let ((a!1 (ite (and (not (<= A 0)) (>= (HeapSize H) A))
                (select (HeapContents H) A)
                defObj)))
  (not ((_ is O_node) a!1)))
      )
      CHC_COMP_FALSE
    )
  )
)
(assert
  (forall ( (A Int) (B Int) (C Int) (D Int) (E Int) (F Int) (G Heap) ) 
    (=>
      (and
        (inv_main65 G F E D C B A)
        (let ((a!1 (ite (and (not (<= A 0)) (>= (HeapSize G) A))
                (select (HeapContents G) A)
                defObj)))
  (not ((_ is O_node) a!1)))
      )
      CHC_COMP_FALSE
    )
  )
)
(assert
  (forall ( (A Int) (B Int) (C Int) (D Int) (E Int) (F Int) (G Heap) ) 
    (=>
      (and
        (inv_main67 G F E D C B A)
        (let ((a!1 (ite (and (not (<= A 0)) (>= (HeapSize G) A))
                (select (HeapContents G) A)
                defObj)))
  (not ((_ is O_node) a!1)))
      )
      CHC_COMP_FALSE
    )
  )
)
(assert
  (forall ( (A Int) (B Int) (C Int) (D Int) (E Int) (F Int) (G Heap) ) 
    (=>
      (and
        (inv_main66 G F E D C B A)
        (let ((a!1 (ite (and (not (<= D 0)) (>= (HeapSize G) D))
                (select (HeapContents G) D)
                defObj)))
  (not ((_ is O_node) a!1)))
      )
      CHC_COMP_FALSE
    )
  )
)
(assert
  (forall ( (A Int) (B Int) (C Int) (D Int) (E Int) (F Int) (G Int) (H Heap) ) 
    (=>
      (and
        (inv_main69 H G F E D C B A)
        (let ((a!1 (ite (and (not (<= A 0)) (>= (HeapSize H) A))
                (select (HeapContents H) A)
                defObj)))
  (not ((_ is O_node) a!1)))
      )
      CHC_COMP_FALSE
    )
  )
)
(assert
  (forall ( (A Int) (B Int) (C Int) (D Int) (E Int) (F Int) (G Int) (H Heap) ) 
    (=>
      (and
        (inv_main70 H G F E D C B A)
        (let ((a!1 (ite (and (not (<= B 0)) (>= (HeapSize H) B))
                (select (HeapContents H) B)
                defObj)))
  (not ((_ is O_node) a!1)))
      )
      CHC_COMP_FALSE
    )
  )
)
(assert
  (forall ( (A Int) (B Int) (C Int) (D Int) (E Int) (F Int) (G Int) (H Heap) ) 
    (=>
      (and
        (inv_main71 H G F E D C B A)
        (let ((a!1 (ite (and (not (<= B 0)) (>= (HeapSize H) B))
                (select (HeapContents H) B)
                defObj)))
  (not ((_ is O_node) a!1)))
      )
      CHC_COMP_FALSE
    )
  )
)
(assert
  (forall ( (A Int) (B Int) (C Int) (D Int) (E Int) (F Int) (G Int) (H Heap) ) 
    (=>
      (and
        (inv_main72 H G F E D C B A)
        (let ((a!1 (ite (and (not (<= E 0)) (>= (HeapSize H) E))
                (select (HeapContents H) E)
                defObj)))
  (not ((_ is O_node) a!1)))
      )
      CHC_COMP_FALSE
    )
  )
)
(assert
  (forall ( (A Int) (B Int) (C Int) (D Int) (E Int) (F Heap) ) 
    (=>
      (and
        (inv_main74 F E D C B A)
        (let ((a!1 (ite (and (not (<= B 0)) (>= (HeapSize F) B))
                (select (HeapContents F) B)
                defObj)))
  (not ((_ is O_node) a!1)))
      )
      CHC_COMP_FALSE
    )
  )
)
(assert
  (forall ( (A Int) (B Int) (C Int) (D Int) (E Int) (F Heap) ) 
    (=>
      (and
        (inv_main77 F E D C B A)
        (let ((a!1 (ite (and (not (<= B 0)) (>= (HeapSize F) B))
                (select (HeapContents F) B)
                defObj)))
  (not ((_ is O_node) a!1)))
      )
      CHC_COMP_FALSE
    )
  )
)
(assert
  (forall ( (A Int) (B Int) (C Int) (D Int) (E Int) (F Int) (G Heap) ) 
    (=>
      (and
        (inv_main89 G F E D C B A)
        (let ((a!1 (ite (and (not (<= A 0)) (>= (HeapSize G) A))
                (select (HeapContents G) A)
                defObj)))
  (not ((_ is O_node) a!1)))
      )
      CHC_COMP_FALSE
    )
  )
)
(assert
  (forall ( (A Int) (B Int) (C Int) (D Int) (E Int) (F Int) (G Int) (H Heap) ) 
    (=>
      (and
        (inv_main93 H G F E D C B A)
        (let ((a!1 (ite (and (not (<= A 0)) (>= (HeapSize H) A))
                (select (HeapContents H) A)
                defObj)))
  (not ((_ is O_node) a!1)))
      )
      CHC_COMP_FALSE
    )
  )
)
(assert
  (forall ( (A Int) (B Int) (C Int) (D Int) (E Int) (F Heap) ) 
    (=>
      (and
        (inv_main96 F E D C B A)
        true
      )
      CHC_COMP_FALSE
    )
  )
)
(assert
  (forall ( (CHC_COMP_UNUSED Bool) ) 
    (=>
      (and
        CHC_COMP_FALSE
      )
      false
    )
  )
)

(check-sat)
(exit)
